c Random generated cnf formula, satisfiable: true
p cnf 10 50
1 9 -6 0
10 -3 -2 0
7 -5 3 0
4 1 -10 0
-6 -3 -2 0
7 -8 -1 0
2 4 3 0
3 6 -8 0
3 -9 -1 0
8 -7 -2 0
8 -3 5 0
2 7 10 0
3 -5 -6 0
6 -9 -4 0
-1 8 -4 0
-2 -7 -9 0
-6 -9 2 0
4 -10 -1 0
-9 2 8 0
1 -10 -9 0
9 -5 -2 0
10 -3 9 0
-1 8 3 0
-1 10 2 0
-9 -5 8 0
4 9 1 0
10 -1 -8 0
8 -10 -2 0
-9 10 3 0
-5 -4 7 0
1 -10 -4 0
7 2 6 0
-9 10 7 0
10 -9 -1 0
-7 -5 4 0
-3 8 -4 0
1 5 -8 0
2 5 9 0
-5 -2 6 0
7 6 -2 0
10 6 -4 0
-10 7 -4 0
6 2 1 0
-9 -1 4 0
2 4 6 0
-1 5 -9 0
-6 8 2 0
-4 -3 -2 0
7 8 3 0
1 -3 6 0
